(declare-fun $V91_X$2 () Bool)
(declare-fun $V27_dist$2 () Int)
(declare-fun $V33_env$2 () Bool)
(declare-fun $OK$2 () Bool)
(declare-fun %init () Bool)
(declare-fun $s$0 () Bool)
(declare-fun $V33_env$~1 () Bool)
(declare-fun $m$0 () Bool)

(assert (let ((a!1 (and (and (not (and $m$0 $s$0)) (< 32766 32767)) $V33_env$~1))
      (a!3 (= $V91_X$2 (and (not (and $m$0 $s$0)) (< 32766 32767)))))
(let ((a!2 (ite %init (and (not (and $m$0 $s$0)) (< 32766 32767)) a!1)))
(let ((a!4 (and (= $OK$2 (or (not a!2) (>= 32766 0)))
                (= $V33_env$2 a!2)
                (= $V27_dist$2 32766)
                a!3)))
  (ite (or (not $m$0) (not $s$0)) a!4 (ite (and $m$0 $s$0) a!4 true))))))
(check-sat)
